certificates/rado_a15_c3_N220.cnf
c Rad2 upper bound instance: x1 + 15*x2 - x3 = 3, interval [1,220]
p cnf 220 3094
1 13 0
-1 -13 0
1 2 28 0
-1 -2 -28 0
1 3 43 0
-1 -3 -43 0
1 4 58 0
-1 -4 -58 0
1 5 73 0
-1 -5 -73 0
1 6 88 0
-1 -6 -88 0
1 7 103 0
-1 -7 -103 0
1 8 118 0
-1 -8 -118 0
1 9 133 0
-1 -9 -133 0
1 10 148 0
-1 -10 -148 0
1 11 163 0
-1 -11 -163 0
1 12 178 0
-1 -12 -178 0
1 13 193 0
-1 -13 -193 0
1 14 208 0
-1 -14 -208 0
1 2 14 0
-1 -2 -14 0
2 29 0
-2 -29 0
2 3 44 0
-2 -3 -44 0
2 4 59 0
-2 -4 -59 0
2 5 74 0
-2 -5 -74 0
2 6 89 0
-2 -6 -89 0
2 7 104 0
-2 -7 -104 0
2 8 119 0
-2 -8 -119 0
2 9 134 0
-2 -9 -134 0
2 10 149 0
-2 -10 -149 0
2 11 164 0
-2 -11 -164 0
2 12 179 0
-2 -12 -179 0
2 13 194 0
-2 -13 -194 0
2 14 209 0
-2 -14 -209 0
1 3 15 0
-1 -3 -15 0
2 3 30 0
-2 -3 -30 0
3 45 0
-3 -45 0
3 4 60 0
-3 -4 -60 0
3 5 75 0
-3 -5 -75 0
3 6 90 0
-3 -6 -90 0
3 7 105 0
-3 -7 -105 0
3 8 120 0
-3 -8 -120 0
3 9 135 0
-3 -9 -135 0
3 10 150 0
-3 -10 -150 0
3 11 165 0
-3 -11 -165 0
3 12 180 0
-3 -12 -180 0
3 13 195 0
-3 -13 -195 0
3 14 210 0
-3 -14 -210 0
1 4 16 0
-1 -4 -16 0
2 4 31 0
-2 -4 -31 0
3 4 46 0
-3 -4 -46 0
4 61 0
-4 -61 0
4 5 76 0
-4 -5 -76 0
4 6 91 0
-4 -6 -91 0
4 7 106 0
-4 -7 -106 0
4 8 121 0
-4 -8 -121 0
4 9 136 0
-4 -9 -136 0
4 10 151 0
-4 -10 -151 0
4 11 166 0
-4 -11 -166 0
4 12 181 0
-4 -12 -181 0
4 13 196 0
-4 -13 -196 0
4 14 211 0
-4 -14 -211 0
1 5 17 0
-1 -5 -17 0
2 5 32 0
-2 -5 -32 0
3 5 47 0
-3 -5 -47 0
4 5 62 0
-4 -5 -62 0
5 77 0
-5 -77 0
5 6 92 0
-5 -6 -92 0
5 7 107 0
-5 -7 -107 0
5 8 122 0
-5 -8 -122 0
5 9 137 0
-5 -9 -137 0
5 10 152 0
-5 -10 -152 0
5 11 167 0
-5 -11 -167 0
5 12 182 0
-5 -12 -182 0
5 13 197 0
-5 -13 -197 0
5 14 212 0
-5 -14 -212 0
1 6 18 0
-1 -6 -18 0
2 6 33 0
-2 -6 -33 0
3 6 48 0
-3 -6 -48 0
4 6 63 0
-4 -6 -63 0
5 6 78 0
-5 -6 -78 0
6 93 0
-6 -93 0
6 7 108 0
-6 -7 -108 0
6 8 123 0
-6 -8 -123 0
6 9 138 0
-6 -9 -138 0
6 10 153 0
-6 -10 -153 0
6 11 168 0
-6 -11 -168 0
6 12 183 0
-6 -12 -183 0
6 13 198 0
-6 -13 -198 0
6 14 213 0
-6 -14 -213 0
1 7 19 0
-1 -7 -19 0
2 7 34 0
-2 -7 -34 0
3 7 49 0
-3 -7 -49 0
4 7 64 0
-4 -7 -64 0
5 7 79 0
-5 -7 -79 0
6 7 94 0
-6 -7 -94 0
7 109 0
-7 -109 0
7 8 124 0
-7 -8 -124 0
7 9 139 0
-7 -9 -139 0
7 10 154 0
-7 -10 -154 0
7 11 169 0
-7 -11 -169 0
7 12 184 0
-7 -12 -184 0
7 13 199 0
-7 -13 -199 0
7 14 214 0
-7 -14 -214 0
1 8 20 0
-1 -8 -20 0
2 8 35 0
-2 -8 -35 0
3 8 50 0
-3 -8 -50 0
4 8 65 0
-4 -8 -65 0
5 8 80 0
-5 -8 -80 0
6 8 95 0
-6 -8 -95 0
7 8 110 0
-7 -8 -110 0
8 125 0
-8 -125 0
8 9 140 0
-8 -9 -140 0
8 10 155 0
-8 -10 -155 0
8 11 170 0
-8 -11 -170 0
8 12 185 0
-8 -12 -185 0
8 13 200 0
-8 -13 -200 0
8 14 215 0
-8 -14 -215 0
1 9 21 0
-1 -9 -21 0
2 9 36 0
-2 -9 -36 0
3 9 51 0
-3 -9 -51 0
4 9 66 0
-4 -9 -66 0
5 9 81 0
-5 -9 -81 0
6 9 96 0
-6 -9 -96 0
7 9 111 0
-7 -9 -111 0
8 9 126 0
-8 -9 -126 0
9 141 0
-9 -141 0
9 10 156 0
-9 -10 -156 0
9 11 171 0
-9 -11 -171 0
9 12 186 0
-9 -12 -186 0
9 13 201 0
-9 -13 -201 0
9 14 216 0
-9 -14 -216 0
1 10 22 0
-1 -10 -22 0
2 10 37 0
-2 -10 -37 0
3 10 52 0
-3 -10 -52 0
4 10 67 0
-4 -10 -67 0
5 10 82 0
-5 -10 -82 0
6 10 97 0
-6 -10 -97 0
7 10 112 0
-7 -10 -112 0
8 10 127 0
-8 -10 -127 0
9 10 142 0
-9 -10 -142 0
10 157 0
-10 -157 0
10 11 172 0
-10 -11 -172 0
10 12 187 0
-10 -12 -187 0
10 13 202 0
-10 -13 -202 0
10 14 217 0
-10 -14 -217 0
1 11 23 0
-1 -11 -23 0
2 11 38 0
-2 -11 -38 0
3 11 53 0
-3 -11 -53 0
4 11 68 0
-4 -11 -68 0
5 11 83 0
-5 -11 -83 0
6 11 98 0
-6 -11 -98 0
7 11 113 0
-7 -11 -113 0
8 11 128 0
-8 -11 -128 0
9 11 143 0
-9 -11 -143 0
10 11 158 0
-10 -11 -158 0
11 173 0
-11 -173 0
11 12 188 0
-11 -12 -188 0
11 13 203 0
-11 -13 -203 0
11 14 218 0
-11 -14 -218 0
1 12 24 0
-1 -12 -24 0
2 12 39 0
-2 -12 -39 0
3 12 54 0
-3 -12 -54 0
4 12 69 0
-4 -12 -69 0
5 12 84 0
-5 -12 -84 0
6 12 99 0
-6 -12 -99 0
7 12 114 0
-7 -12 -114 0
8 12 129 0
-8 -12 -129 0
9 12 144 0
-9 -12 -144 0
10 12 159 0
-10 -12 -159 0
11 12 174 0
-11 -12 -174 0
12 189 0
-12 -189 0
12 13 204 0
-12 -13 -204 0
12 14 219 0
-12 -14 -219 0
1 13 25 0
-1 -13 -25 0
2 13 40 0
-2 -13 -40 0
3 13 55 0
-3 -13 -55 0
4 13 70 0
-4 -13 -70 0
5 13 85 0
-5 -13 -85 0
6 13 100 0
-6 -13 -100 0
7 13 115 0
-7 -13 -115 0
8 13 130 0
-8 -13 -130 0
9 13 145 0
-9 -13 -145 0
10 13 160 0
-10 -13 -160 0
11 13 175 0
-11 -13 -175 0
12 13 190 0
-12 -13 -190 0
13 205 0
-13 -205 0
13 14 220 0
-13 -14 -220 0
1 14 26 0
-1 -14 -26 0
2 14 41 0
-2 -14 -41 0
3 14 56 0
-3 -14 -56 0
4 14 71 0
-4 -14 -71 0
5 14 86 0
-5 -14 -86 0
6 14 101 0
-6 -14 -101 0
7 14 116 0
-7 -14 -116 0
8 14 131 0
-8 -14 -131 0
9 14 146 0
-9 -14 -146 0
10 14 161 0
-10 -14 -161 0
11 14 176 0
-11 -14 -176 0
12 14 191 0
-12 -14 -191 0
13 14 206 0
-13 -14 -206 0
1 15 27 0
-1 -15 -27 0
2 15 42 0
-2 -15 -42 0
3 15 57 0
-3 -15 -57 0
4 15 72 0
-4 -15 -72 0
5 15 87 0
-5 -15 -87 0
6 15 102 0
-6 -15 -102 0
7 15 117 0
-7 -15 -117 0
8 15 132 0
-8 -15 -132 0
9 15 147 0
-9 -15 -147 0
10 15 162 0
-10 -15 -162 0
11 15 177 0
-11 -15 -177 0
12 15 192 0
-12 -15 -192 0
13 15 207 0
-13 -15 -207 0
1 16 28 0
-1 -16 -28 0
2 16 43 0
-2 -16 -43 0
3 16 58 0
-3 -16 -58 0
4 16 73 0
-4 -16 -73 0
5 16 88 0
-5 -16 -88 0
6 16 103 0
-6 -16 -103 0
7 16 118 0
-7 -16 -118 0
8 16 133 0
-8 -16 -133 0
9 16 148 0
-9 -16 -148 0
10 16 163 0
-10 -16 -163 0
11 16 178 0
-11 -16 -178 0
12 16 193 0
-12 -16 -193 0
13 16 208 0
-13 -16 -208 0
1 17 29 0
-1 -17 -29 0
2 17 44 0
-2 -17 -44 0
3 17 59 0
-3 -17 -59 0
4 17 74 0
-4 -17 -74 0
5 17 89 0
-5 -17 -89 0
6 17 104 0
-6 -17 -104 0
7 17 119 0
-7 -17 -119 0
8 17 134 0
-8 -17 -134 0
9 17 149 0
-9 -17 -149 0
10 17 164 0
-10 -17 -164 0
11 17 179 0
-11 -17 -179 0
12 17 194 0
-12 -17 -194 0
13 17 209 0
-13 -17 -209 0
1 18 30 0
-1 -18 -30 0
2 18 45 0
-2 -18 -45 0
3 18 60 0
-3 -18 -60 0
4 18 75 0
-4 -18 -75 0
5 18 90 0
-5 -18 -90 0
6 18 105 0
-6 -18 -105 0
7 18 120 0
-7 -18 -120 0
8 18 135 0
-8 -18 -135 0
9 18 150 0
-9 -18 -150 0
10 18 165 0
-10 -18 -165 0
11 18 180 0
-11 -18 -180 0
12 18 195 0
-12 -18 -195 0
13 18 210 0
-13 -18 -210 0
1 19 31 0
-1 -19 -31 0
2 19 46 0
-2 -19 -46 0
3 19 61 0
-3 -19 -61 0
4 19 76 0
-4 -19 -76 0
5 19 91 0
-5 -19 -91 0
6 19 106 0
-6 -19 -106 0
7 19 121 0
-7 -19 -121 0
8 19 136 0
-8 -19 -136 0
9 19 151 0
-9 -19 -151 0
10 19 166 0
-10 -19 -166 0
11 19 181 0
-11 -19 -181 0
12 19 196 0
-12 -19 -196 0
13 19 211 0
-13 -19 -211 0
1 20 32 0
-1 -20 -32 0
2 20 47 0
-2 -20 -47 0
3 20 62 0
-3 -20 -62 0
4 20 77 0
-4 -20 -77 0
5 20 92 0
-5 -20 -92 0
6 20 107 0
-6 -20 -107 0
7 20 122 0
-7 -20 -122 0
8 20 137 0
-8 -20 -137 0
9 20 152 0
-9 -20 -152 0
10 20 167 0
-10 -20 -167 0
11 20 182 0
-11 -20 -182 0
12 20 197 0
-12 -20 -197 0
13 20 212 0
-13 -20 -212 0
1 21 33 0
-1 -21 -33 0
2 21 48 0
-2 -21 -48 0
3 21 63 0
-3 -21 -63 0
4 21 78 0
-4 -21 -78 0
5 21 93 0
-5 -21 -93 0
6 21 108 0
-6 -21 -108 0
7 21 123 0
-7 -21 -123 0
8 21 138 0
-8 -21 -138 0
9 21 153 0
-9 -21 -153 0
10 21 168 0
-10 -21 -168 0
11 21 183 0
-11 -21 -183 0
12 21 198 0
-12 -21 -198 0
13 21 213 0
-13 -21 -213 0
1 22 34 0
-1 -22 -34 0
2 22 49 0
-2 -22 -49 0
3 22 64 0
-3 -22 -64 0
4 22 79 0
-4 -22 -79 0
5 22 94 0
-5 -22 -94 0
6 22 109 0
-6 -22 -109 0
7 22 124 0
-7 -22 -124 0
8 22 139 0
-8 -22 -139 0
9 22 154 0
-9 -22 -154 0
10 22 169 0
-10 -22 -169 0
11 22 184 0
-11 -22 -184 0
12 22 199 0
-12 -22 -199 0
13 22 214 0
-13 -22 -214 0
1 23 35 0
-1 -23 -35 0
2 23 50 0
-2 -23 -50 0
3 23 65 0
-3 -23 -65 0
4 23 80 0
-4 -23 -80 0
5 23 95 0
-5 -23 -95 0
6 23 110 0
-6 -23 -110 0
7 23 125 0
-7 -23 -125 0
8 23 140 0
-8 -23 -140 0
9 23 155 0
-9 -23 -155 0
10 23 170 0
-10 -23 -170 0
11 23 185 0
-11 -23 -185 0
12 23 200 0
-12 -23 -200 0
13 23 215 0
-13 -23 -215 0
1 24 36 0
-1 -24 -36 0
2 24 51 0
-2 -24 -51 0
3 24 66 0
-3 -24 -66 0
4 24 81 0
-4 -24 -81 0
5 24 96 0
-5 -24 -96 0
6 24 111 0
-6 -24 -111 0
7 24 126 0
-7 -24 -126 0
8 24 141 0
-8 -24 -141 0
9 24 156 0
-9 -24 -156 0
10 24 171 0
-10 -24 -171 0
11 24 186 0
-11 -24 -186 0
12 24 201 0
-12 -24 -201 0
13 24 216 0
-13 -24 -216 0
1 25 37 0
-1 -25 -37 0
2 25 52 0
-2 -25 -52 0
3 25 67 0
-3 -25 -67 0
4 25 82 0
-4 -25 -82 0
5 25 97 0
-5 -25 -97 0
6 25 112 0
-6 -25 -112 0
7 25 127 0
-7 -25 -127 0
8 25 142 0
-8 -25 -142 0
9 25 157 0
-9 -25 -157 0
10 25 172 0
-10 -25 -172 0
11 25 187 0
-11 -25 -187 0
12 25 202 0
-12 -25 -202 0
13 25 217 0
-13 -25 -217 0
1 26 38 0
-1 -26 -38 0
2 26 53 0
-2 -26 -53 0
3 26 68 0
-3 -26 -68 0
4 26 83 0
-4 -26 -83 0
5 26 98 0
-5 -26 -98 0
6 26 113 0
-6 -26 -113 0
7 26 128 0
-7 -26 -128 0
8 26 143 0
-8 -26 -143 0
9 26 158 0
-9 -26 -158 0
10 26 173 0
-10 -26 -173 0
11 26 188 0
-11 -26 -188 0
12 26 203 0
-12 -26 -203 0
13 26 218 0
-13 -26 -218 0
1 27 39 0
-1 -27 -39 0
2 27 54 0
-2 -27 -54 0
3 27 69 0
-3 -27 -69 0
4 27 84 0
-4 -27 -84 0
5 27 99 0
-5 -27 -99 0
6 27 114 0
-6 -27 -114 0
7 27 129 0
-7 -27 -129 0
8 27 144 0
-8 -27 -144 0
9 27 159 0
-9 -27 -159 0
10 27 174 0
-10 -27 -174 0
11 27 189 0
-11 -27 -189 0
12 27 204 0
-12 -27 -204 0
13 27 219 0
-13 -27 -219 0
1 28 40 0
-1 -28 -40 0
2 28 55 0
-2 -28 -55 0
3 28 70 0
-3 -28 -70 0
4 28 85 0
-4 -28 -85 0
5 28 100 0
-5 -28 -100 0
6 28 115 0
-6 -28 -115 0
7 28 130 0
-7 -28 -130 0
8 28 145 0
-8 -28 -145 0
9 28 160 0
-9 -28 -160 0
10 28 175 0
-10 -28 -175 0
11 28 190 0
-11 -28 -190 0
12 28 205 0
-12 -28 -205 0
13 28 220 0
-13 -28 -220 0
1 29 41 0
-1 -29 -41 0
2 29 56 0
-2 -29 -56 0
3 29 71 0
-3 -29 -71 0
4 29 86 0
-4 -29 -86 0
5 29 101 0
-5 -29 -101 0
6 29 116 0
-6 -29 -116 0
7 29 131 0
-7 -29 -131 0
8 29 146 0
-8 -29 -146 0
9 29 161 0
-9 -29 -161 0
10 29 176 0
-10 -29 -176 0
11 29 191 0
-11 -29 -191 0
12 29 206 0
-12 -29 -206 0
1 30 42 0
-1 -30 -42 0
2 30 57 0
-2 -30 -57 0
3 30 72 0
-3 -30 -72 0
4 30 87 0
-4 -30 -87 0
5 30 102 0
-5 -30 -102 0
6 30 117 0
-6 -30 -117 0
7 30 132 0
-7 -30 -132 0
8 30 147 0
-8 -30 -147 0
9 30 162 0
-9 -30 -162 0
10 30 177 0
-10 -30 -177 0
11 30 192 0
-11 -30 -192 0
12 30 207 0
-12 -30 -207 0
1 31 43 0
-1 -31 -43 0
2 31 58 0
-2 -31 -58 0
3 31 73 0
-3 -31 -73 0
4 31 88 0
-4 -31 -88 0
5 31 103 0
-5 -31 -103 0
6 31 118 0
-6 -31 -118 0
7 31 133 0
-7 -31 -133 0
8 31 148 0
-8 -31 -148 0
9 31 163 0
-9 -31 -163 0
10 31 178 0
-10 -31 -178 0
11 31 193 0
-11 -31 -193 0
12 31 208 0
-12 -31 -208 0
1 32 44 0
-1 -32 -44 0
2 32 59 0
-2 -32 -59 0
3 32 74 0
-3 -32 -74 0
4 32 89 0
-4 -32 -89 0
5 32 104 0
-5 -32 -104 0
6 32 119 0
-6 -32 -119 0
7 32 134 0
-7 -32 -134 0
8 32 149 0
-8 -32 -149 0
9 32 164 0
-9 -32 -164 0
10 32 179 0
-10 -32 -179 0
11 32 194 0
-11 -32 -194 0
12 32 209 0
-12 -32 -209 0
1 33 45 0
-1 -33 -45 0
2 33 60 0
-2 -33 -60 0
3 33 75 0
-3 -33 -75 0
4 33 90 0
-4 -33 -90 0
5 33 105 0
-5 -33 -105 0
6 33 120 0
-6 -33 -120 0
7 33 135 0
-7 -33 -135 0
8 33 150 0
-8 -33 -150 0
9 33 165 0
-9 -33 -165 0
10 33 180 0
-10 -33 -180 0
11 33 195 0
-11 -33 -195 0
12 33 210 0
-12 -33 -210 0
1 34 46 0
-1 -34 -46 0
2 34 61 0
-2 -34 -61 0
3 34 76 0
-3 -34 -76 0
4 34 91 0
-4 -34 -91 0
5 34 106 0
-5 -34 -106 0
6 34 121 0
-6 -34 -121 0
7 34 136 0
-7 -34 -136 0
8 34 151 0
-8 -34 -151 0
9 34 166 0
-9 -34 -166 0
10 34 181 0
-10 -34 -181 0
11 34 196 0
-11 -34 -196 0
12 34 211 0
-12 -34 -211 0
1 35 47 0
-1 -35 -47 0
2 35 62 0
-2 -35 -62 0
3 35 77 0
-3 -35 -77 0
4 35 92 0
-4 -35 -92 0
5 35 107 0
-5 -35 -107 0
6 35 122 0
-6 -35 -122 0
7 35 137 0
-7 -35 -137 0
8 35 152 0
-8 -35 -152 0
9 35 167 0
-9 -35 -167 0
10 35 182 0
-10 -35 -182 0
11 35 197 0
-11 -35 -197 0
12 35 212 0
-12 -35 -212 0
1 36 48 0
-1 -36 -48 0
2 36 63 0
-2 -36 -63 0
3 36 78 0
-3 -36 -78 0
4 36 93 0
-4 -36 -93 0
5 36 108 0
-5 -36 -108 0
6 36 123 0
-6 -36 -123 0
7 36 138 0
-7 -36 -138 0
8 36 153 0
-8 -36 -153 0
9 36 168 0
-9 -36 -168 0
10 36 183 0
-10 -36 -183 0
11 36 198 0
-11 -36 -198 0
12 36 213 0
-12 -36 -213 0
1 37 49 0
-1 -37 -49 0
2 37 64 0
-2 -37 -64 0
3 37 79 0
-3 -37 -79 0
4 37 94 0
-4 -37 -94 0
5 37 109 0
-5 -37 -109 0
6 37 124 0
-6 -37 -124 0
7 37 139 0
-7 -37 -139 0
8 37 154 0
-8 -37 -154 0
9 37 169 0
-9 -37 -169 0
10 37 184 0
-10 -37 -184 0
11 37 199 0
-11 -37 -199 0
12 37 214 0
-12 -37 -214 0
1 38 50 0
-1 -38 -50 0
2 38 65 0
-2 -38 -65 0
3 38 80 0
-3 -38 -80 0
4 38 95 0
-4 -38 -95 0
5 38 110 0
-5 -38 -110 0
6 38 125 0
-6 -38 -125 0
7 38 140 0
-7 -38 -140 0
8 38 155 0
-8 -38 -155 0
9 38 170 0
-9 -38 -170 0
10 38 185 0
-10 -38 -185 0
11 38 200 0
-11 -38 -200 0
12 38 215 0
-12 -38 -215 0
1 39 51 0
-1 -39 -51 0
2 39 66 0
-2 -39 -66 0
3 39 81 0
-3 -39 -81 0
4 39 96 0
-4 -39 -96 0
5 39 111 0
-5 -39 -111 0
6 39 126 0
-6 -39 -126 0
7 39 141 0
-7 -39 -141 0
8 39 156 0
-8 -39 -156 0
9 39 171 0
-9 -39 -171 0
10 39 186 0
-10 -39 -186 0
11 39 201 0
-11 -39 -201 0
12 39 216 0
-12 -39 -216 0
1 40 52 0
-1 -40 -52 0
2 40 67 0
-2 -40 -67 0
3 40 82 0
-3 -40 -82 0
4 40 97 0
-4 -40 -97 0
5 40 112 0
-5 -40 -112 0
6 40 127 0
-6 -40 -127 0
7 40 142 0
-7 -40 -142 0
8 40 157 0
-8 -40 -157 0
9 40 172 0
-9 -40 -172 0
10 40 187 0
-10 -40 -187 0
11 40 202 0
-11 -40 -202 0
12 40 217 0
-12 -40 -217 0
1 41 53 0
-1 -41 -53 0
2 41 68 0
-2 -41 -68 0
3 41 83 0
-3 -41 -83 0
4 41 98 0
-4 -41 -98 0
5 41 113 0
-5 -41 -113 0
6 41 128 0
-6 -41 -128 0
7 41 143 0
-7 -41 -143 0
8 41 158 0
-8 -41 -158 0
9 41 173 0
-9 -41 -173 0
10 41 188 0
-10 -41 -188 0
11 41 203 0
-11 -41 -203 0
12 41 218 0
-12 -41 -218 0
1 42 54 0
-1 -42 -54 0
2 42 69 0
-2 -42 -69 0
3 42 84 0
-3 -42 -84 0
4 42 99 0
-4 -42 -99 0
5 42 114 0
-5 -42 -114 0
6 42 129 0
-6 -42 -129 0
7 42 144 0
-7 -42 -144 0
8 42 159 0
-8 -42 -159 0
9 42 174 0
-9 -42 -174 0
10 42 189 0
-10 -42 -189 0
11 42 204 0
-11 -42 -204 0
12 42 219 0
-12 -42 -219 0
1 43 55 0
-1 -43 -55 0
2 43 70 0
-2 -43 -70 0
3 43 85 0
-3 -43 -85 0
4 43 100 0
-4 -43 -100 0
5 43 115 0
-5 -43 -115 0
6 43 130 0
-6 -43 -130 0
7 43 145 0
-7 -43 -145 0
8 43 160 0
-8 -43 -160 0
9 43 175 0
-9 -43 -175 0
10 43 190 0
-10 -43 -190 0
11 43 205 0
-11 -43 -205 0
12 43 220 0
-12 -43 -220 0
1 44 56 0
-1 -44 -56 0
2 44 71 0
-2 -44 -71 0
3 44 86 0
-3 -44 -86 0
4 44 101 0
-4 -44 -101 0
5 44 116 0
-5 -44 -116 0
6 44 131 0
-6 -44 -131 0
7 44 146 0
-7 -44 -146 0
8 44 161 0
-8 -44 -161 0
9 44 176 0
-9 -44 -176 0
10 44 191 0
-10 -44 -191 0
11 44 206 0
-11 -44 -206 0
1 45 57 0
-1 -45 -57 0
2 45 72 0
-2 -45 -72 0
3 45 87 0
-3 -45 -87 0
4 45 102 0
-4 -45 -102 0
5 45 117 0
-5 -45 -117 0
6 45 132 0
-6 -45 -132 0
7 45 147 0
-7 -45 -147 0
8 45 162 0
-8 -45 -162 0
9 45 177 0
-9 -45 -177 0
10 45 192 0
-10 -45 -192 0
11 45 207 0
-11 -45 -207 0
1 46 58 0
-1 -46 -58 0
2 46 73 0
-2 -46 -73 0
3 46 88 0
-3 -46 -88 0
4 46 103 0
-4 -46 -103 0
5 46 118 0
-5 -46 -118 0
6 46 133 0
-6 -46 -133 0
7 46 148 0
-7 -46 -148 0
8 46 163 0
-8 -46 -163 0
9 46 178 0
-9 -46 -178 0
10 46 193 0
-10 -46 -193 0
11 46 208 0
-11 -46 -208 0
1 47 59 0
-1 -47 -59 0
2 47 74 0
-2 -47 -74 0
3 47 89 0
-3 -47 -89 0
4 47 104 0
-4 -47 -104 0
5 47 119 0
-5 -47 -119 0
6 47 134 0
-6 -47 -134 0
7 47 149 0
-7 -47 -149 0
8 47 164 0
-8 -47 -164 0
9 47 179 0
-9 -47 -179 0
10 47 194 0
-10 -47 -194 0
11 47 209 0
-11 -47 -209 0
1 48 60 0
-1 -48 -60 0
2 48 75 0
-2 -48 -75 0
3 48 90 0
-3 -48 -90 0
4 48 105 0
-4 -48 -105 0
5 48 120 0
-5 -48 -120 0
6 48 135 0
-6 -48 -135 0
7 48 150 0
-7 -48 -150 0
8 48 165 0
-8 -48 -165 0
9 48 180 0
-9 -48 -180 0
10 48 195 0
-10 -48 -195 0
11 48 210 0
-11 -48 -210 0
1 49 61 0
-1 -49 -61 0
2 49 76 0
-2 -49 -76 0
3 49 91 0
-3 -49 -91 0
4 49 106 0
-4 -49 -106 0
5 49 121 0
-5 -49 -121 0
6 49 136 0
-6 -49 -136 0
7 49 151 0
-7 -49 -151 0
8 49 166 0
-8 -49 -166 0
9 49 181 0
-9 -49 -181 0
10 49 196 0
-10 -49 -196 0
11 49 211 0
-11 -49 -211 0
1 50 62 0
-1 -50 -62 0
2 50 77 0
-2 -50 -77 0
3 50 92 0
-3 -50 -92 0
4 50 107 0
-4 -50 -107 0
5 50 122 0
-5 -50 -122 0
6 50 137 0
-6 -50 -137 0
7 50 152 0
-7 -50 -152 0
8 50 167 0
-8 -50 -167 0
9 50 182 0
-9 -50 -182 0
10 50 197 0
-10 -50 -197 0
11 50 212 0
-11 -50 -212 0
1 51 63 0
-1 -51 -63 0
2 51 78 0
-2 -51 -78 0
3 51 93 0
-3 -51 -93 0
4 51 108 0
-4 -51 -108 0
5 51 123 0
-5 -51 -123 0
6 51 138 0
-6 -51 -138 0
7 51 153 0
-7 -51 -153 0
8 51 168 0
-8 -51 -168 0
9 51 183 0
-9 -51 -183 0
10 51 198 0
-10 -51 -198 0
11 51 213 0
-11 -51 -213 0
1 52 64 0
-1 -52 -64 0
2 52 79 0
-2 -52 -79 0
3 52 94 0
-3 -52 -94 0
4 52 109 0
-4 -52 -109 0
5 52 124 0
-5 -52 -124 0
6 52 139 0
-6 -52 -139 0
7 52 154 0
-7 -52 -154 0
8 52 169 0
-8 -52 -169 0
9 52 184 0
-9 -52 -184 0
10 52 199 0
-10 -52 -199 0
11 52 214 0
-11 -52 -214 0
1 53 65 0
-1 -53 -65 0
2 53 80 0
-2 -53 -80 0
3 53 95 0
-3 -53 -95 0
4 53 110 0
-4 -53 -110 0
5 53 125 0
-5 -53 -125 0
6 53 140 0
-6 -53 -140 0
7 53 155 0
-7 -53 -155 0
8 53 170 0
-8 -53 -170 0
9 53 185 0
-9 -53 -185 0
10 53 200 0
-10 -53 -200 0
11 53 215 0
-11 -53 -215 0
1 54 66 0
-1 -54 -66 0
2 54 81 0
-2 -54 -81 0
3 54 96 0
-3 -54 -96 0
4 54 111 0
-4 -54 -111 0
5 54 126 0
-5 -54 -126 0
6 54 141 0
-6 -54 -141 0
7 54 156 0
-7 -54 -156 0
8 54 171 0
-8 -54 -171 0
9 54 186 0
-9 -54 -186 0
10 54 201 0
-10 -54 -201 0
11 54 216 0
-11 -54 -216 0
1 55 67 0
-1 -55 -67 0
2 55 82 0
-2 -55 -82 0
3 55 97 0
-3 -55 -97 0
4 55 112 0
-4 -55 -112 0
5 55 127 0
-5 -55 -127 0
6 55 142 0
-6 -55 -142 0
7 55 157 0
-7 -55 -157 0
8 55 172 0
-8 -55 -172 0
9 55 187 0
-9 -55 -187 0
10 55 202 0
-10 -55 -202 0
11 55 217 0
-11 -55 -217 0
1 56 68 0
-1 -56 -68 0
2 56 83 0
-2 -56 -83 0
3 56 98 0
-3 -56 -98 0
4 56 113 0
-4 -56 -113 0
5 56 128 0
-5 -56 -128 0
6 56 143 0
-6 -56 -143 0
7 56 158 0
-7 -56 -158 0
8 56 173 0
-8 -56 -173 0
9 56 188 0
-9 -56 -188 0
10 56 203 0
-10 -56 -203 0
11 56 218 0
-11 -56 -218 0
1 57 69 0
-1 -57 -69 0
2 57 84 0
-2 -57 -84 0
3 57 99 0
-3 -57 -99 0
4 57 114 0
-4 -57 -114 0
5 57 129 0
-5 -57 -129 0
6 57 144 0
-6 -57 -144 0
7 57 159 0
-7 -57 -159 0
8 57 174 0
-8 -57 -174 0
9 57 189 0
-9 -57 -189 0
10 57 204 0
-10 -57 -204 0
11 57 219 0
-11 -57 -219 0
1 58 70 0
-1 -58 -70 0
2 58 85 0
-2 -58 -85 0
3 58 100 0
-3 -58 -100 0
4 58 115 0
-4 -58 -115 0
5 58 130 0
-5 -58 -130 0
6 58 145 0
-6 -58 -145 0
7 58 160 0
-7 -58 -160 0
8 58 175 0
-8 -58 -175 0
9 58 190 0
-9 -58 -190 0
10 58 205 0
-10 -58 -205 0
11 58 220 0
-11 -58 -220 0
1 59 71 0
-1 -59 -71 0
2 59 86 0
-2 -59 -86 0
3 59 101 0
-3 -59 -101 0
4 59 116 0
-4 -59 -116 0
5 59 131 0
-5 -59 -131 0
6 59 146 0
-6 -59 -146 0
7 59 161 0
-7 -59 -161 0
8 59 176 0
-8 -59 -176 0
9 59 191 0
-9 -59 -191 0
10 59 206 0
-10 -59 -206 0
1 60 72 0
-1 -60 -72 0
2 60 87 0
-2 -60 -87 0
3 60 102 0
-3 -60 -102 0
4 60 117 0
-4 -60 -117 0
5 60 132 0
-5 -60 -132 0
6 60 147 0
-6 -60 -147 0
7 60 162 0
-7 -60 -162 0
8 60 177 0
-8 -60 -177 0
9 60 192 0
-9 -60 -192 0
10 60 207 0
-10 -60 -207 0
1 61 73 0
-1 -61 -73 0
2 61 88 0
-2 -61 -88 0
3 61 103 0
-3 -61 -103 0
4 61 118 0
-4 -61 -118 0
5 61 133 0
-5 -61 -133 0
6 61 148 0
-6 -61 -148 0
7 61 163 0
-7 -61 -163 0
8 61 178 0
-8 -61 -178 0
9 61 193 0
-9 -61 -193 0
10 61 208 0
-10 -61 -208 0
1 62 74 0
-1 -62 -74 0
2 62 89 0
-2 -62 -89 0
3 62 104 0
-3 -62 -104 0
4 62 119 0
-4 -62 -119 0
5 62 134 0
-5 -62 -134 0
6 62 149 0
-6 -62 -149 0
7 62 164 0
-7 -62 -164 0
8 62 179 0
-8 -62 -179 0
9 62 194 0
-9 -62 -194 0
10 62 209 0
-10 -62 -209 0
1 63 75 0
-1 -63 -75 0
2 63 90 0
-2 -63 -90 0
3 63 105 0
-3 -63 -105 0
4 63 120 0
-4 -63 -120 0
5 63 135 0
-5 -63 -135 0
6 63 150 0
-6 -63 -150 0
7 63 165 0
-7 -63 -165 0
8 63 180 0
-8 -63 -180 0
9 63 195 0
-9 -63 -195 0
10 63 210 0
-10 -63 -210 0
1 64 76 0
-1 -64 -76 0
2 64 91 0
-2 -64 -91 0
3 64 106 0
-3 -64 -106 0
4 64 121 0
-4 -64 -121 0
5 64 136 0
-5 -64 -136 0
6 64 151 0
-6 -64 -151 0
7 64 166 0
-7 -64 -166 0
8 64 181 0
-8 -64 -181 0
9 64 196 0
-9 -64 -196 0
10 64 211 0
-10 -64 -211 0
1 65 77 0
-1 -65 -77 0
2 65 92 0
-2 -65 -92 0
3 65 107 0
-3 -65 -107 0
4 65 122 0
-4 -65 -122 0
5 65 137 0
-5 -65 -137 0
6 65 152 0
-6 -65 -152 0
7 65 167 0
-7 -65 -167 0
8 65 182 0
-8 -65 -182 0
9 65 197 0
-9 -65 -197 0
10 65 212 0
-10 -65 -212 0
1 66 78 0
-1 -66 -78 0
2 66 93 0
-2 -66 -93 0
3 66 108 0
-3 -66 -108 0
4 66 123 0
-4 -66 -123 0
5 66 138 0
-5 -66 -138 0
6 66 153 0
-6 -66 -153 0
7 66 168 0
-7 -66 -168 0
8 66 183 0
-8 -66 -183 0
9 66 198 0
-9 -66 -198 0
10 66 213 0
-10 -66 -213 0
1 67 79 0
-1 -67 -79 0
2 67 94 0
-2 -67 -94 0
3 67 109 0
-3 -67 -109 0
4 67 124 0
-4 -67 -124 0
5 67 139 0
-5 -67 -139 0
6 67 154 0
-6 -67 -154 0
7 67 169 0
-7 -67 -169 0
8 67 184 0
-8 -67 -184 0
9 67 199 0
-9 -67 -199 0
10 67 214 0
-10 -67 -214 0
1 68 80 0
-1 -68 -80 0
2 68 95 0
-2 -68 -95 0
3 68 110 0
-3 -68 -110 0
4 68 125 0
-4 -68 -125 0
5 68 140 0
-5 -68 -140 0
6 68 155 0
-6 -68 -155 0
7 68 170 0
-7 -68 -170 0
8 68 185 0
-8 -68 -185 0
9 68 200 0
-9 -68 -200 0
10 68 215 0
-10 -68 -215 0
1 69 81 0
-1 -69 -81 0
2 69 96 0
-2 -69 -96 0
3 69 111 0
-3 -69 -111 0
4 69 126 0
-4 -69 -126 0
5 69 141 0
-5 -69 -141 0
6 69 156 0
-6 -69 -156 0
7 69 171 0
-7 -69 -171 0
8 69 186 0
-8 -69 -186 0
9 69 201 0
-9 -69 -201 0
10 69 216 0
-10 -69 -216 0
1 70 82 0
-1 -70 -82 0
2 70 97 0
-2 -70 -97 0
3 70 112 0
-3 -70 -112 0
4 70 127 0
-4 -70 -127 0
5 70 142 0
-5 -70 -142 0
6 70 157 0
-6 -70 -157 0
7 70 172 0
-7 -70 -172 0
8 70 187 0
-8 -70 -187 0
9 70 202 0
-9 -70 -202 0
10 70 217 0
-10 -70 -217 0
1 71 83 0
-1 -71 -83 0
2 71 98 0
-2 -71 -98 0
3 71 113 0
-3 -71 -113 0
4 71 128 0
-4 -71 -128 0
5 71 143 0
-5 -71 -143 0
6 71 158 0
-6 -71 -158 0
7 71 173 0
-7 -71 -173 0
8 71 188 0
-8 -71 -188 0
9 71 203 0
-9 -71 -203 0
10 71 218 0
-10 -71 -218 0
1 72 84 0
-1 -72 -84 0
2 72 99 0
-2 -72 -99 0
3 72 114 0
-3 -72 -114 0
4 72 129 0
-4 -72 -129 0
5 72 144 0
-5 -72 -144 0
6 72 159 0
-6 -72 -159 0
7 72 174 0
-7 -72 -174 0
8 72 189 0
-8 -72 -189 0
9 72 204 0
-9 -72 -204 0
10 72 219 0
-10 -72 -219 0
1 73 85 0
-1 -73 -85 0
2 73 100 0
-2 -73 -100 0
3 73 115 0
-3 -73 -115 0
4 73 130 0
-4 -73 -130 0
5 73 145 0
-5 -73 -145 0
6 73 160 0
-6 -73 -160 0
7 73 175 0
-7 -73 -175 0
8 73 190 0
-8 -73 -190 0
9 73 205 0
-9 -73 -205 0
10 73 220 0
-10 -73 -220 0
1 74 86 0
-1 -74 -86 0
2 74 101 0
-2 -74 -101 0
3 74 116 0
-3 -74 -116 0
4 74 131 0
-4 -74 -131 0
5 74 146 0
-5 -74 -146 0
6 74 161 0
-6 -74 -161 0
7 74 176 0
-7 -74 -176 0
8 74 191 0
-8 -74 -191 0
9 74 206 0
-9 -74 -206 0
1 75 87 0
-1 -75 -87 0
2 75 102 0
-2 -75 -102 0
3 75 117 0
-3 -75 -117 0
4 75 132 0
-4 -75 -132 0
5 75 147 0
-5 -75 -147 0
6 75 162 0
-6 -75 -162 0
7 75 177 0
-7 -75 -177 0
8 75 192 0
-8 -75 -192 0
9 75 207 0
-9 -75 -207 0
1 76 88 0
-1 -76 -88 0
2 76 103 0
-2 -76 -103 0
3 76 118 0
-3 -76 -118 0
4 76 133 0
-4 -76 -133 0
5 76 148 0
-5 -76 -148 0
6 76 163 0
-6 -76 -163 0
7 76 178 0
-7 -76 -178 0
8 76 193 0
-8 -76 -193 0
9 76 208 0
-9 -76 -208 0
1 77 89 0
-1 -77 -89 0
2 77 104 0
-2 -77 -104 0
3 77 119 0
-3 -77 -119 0
4 77 134 0
-4 -77 -134 0
5 77 149 0
-5 -77 -149 0
6 77 164 0
-6 -77 -164 0
7 77 179 0
-7 -77 -179 0
8 77 194 0
-8 -77 -194 0
9 77 209 0
-9 -77 -209 0
1 78 90 0
-1 -78 -90 0
2 78 105 0
-2 -78 -105 0
3 78 120 0
-3 -78 -120 0
4 78 135 0
-4 -78 -135 0
5 78 150 0
-5 -78 -150 0
6 78 165 0
-6 -78 -165 0
7 78 180 0
-7 -78 -180 0
8 78 195 0
-8 -78 -195 0
9 78 210 0
-9 -78 -210 0
1 79 91 0
-1 -79 -91 0
2 79 106 0
-2 -79 -106 0
3 79 121 0
-3 -79 -121 0
4 79 136 0
-4 -79 -136 0
5 79 151 0
-5 -79 -151 0
6 79 166 0
-6 -79 -166 0
7 79 181 0
-7 -79 -181 0
8 79 196 0
-8 -79 -196 0
9 79 211 0
-9 -79 -211 0
1 80 92 0
-1 -80 -92 0
2 80 107 0
-2 -80 -107 0
3 80 122 0
-3 -80 -122 0
4 80 137 0
-4 -80 -137 0
5 80 152 0
-5 -80 -152 0
6 80 167 0
-6 -80 -167 0
7 80 182 0
-7 -80 -182 0
8 80 197 0
-8 -80 -197 0
9 80 212 0
-9 -80 -212 0
1 81 93 0
-1 -81 -93 0
2 81 108 0
-2 -81 -108 0
3 81 123 0
-3 -81 -123 0
4 81 138 0
-4 -81 -138 0
5 81 153 0
-5 -81 -153 0
6 81 168 0
-6 -81 -168 0
7 81 183 0
-7 -81 -183 0
8 81 198 0
-8 -81 -198 0
9 81 213 0
-9 -81 -213 0
1 82 94 0
-1 -82 -94 0
2 82 109 0
-2 -82 -109 0
3 82 124 0
-3 -82 -124 0
4 82 139 0
-4 -82 -139 0
5 82 154 0
-5 -82 -154 0
6 82 169 0
-6 -82 -169 0
7 82 184 0
-7 -82 -184 0
8 82 199 0
-8 -82 -199 0
9 82 214 0
-9 -82 -214 0
1 83 95 0
-1 -83 -95 0
2 83 110 0
-2 -83 -110 0
3 83 125 0
-3 -83 -125 0
4 83 140 0
-4 -83 -140 0
5 83 155 0
-5 -83 -155 0
6 83 170 0
-6 -83 -170 0
7 83 185 0
-7 -83 -185 0
8 83 200 0
-8 -83 -200 0
9 83 215 0
-9 -83 -215 0
1 84 96 0
-1 -84 -96 0
2 84 111 0
-2 -84 -111 0
3 84 126 0
-3 -84 -126 0
4 84 141 0
-4 -84 -141 0
5 84 156 0
-5 -84 -156 0
6 84 171 0
-6 -84 -171 0
7 84 186 0
-7 -84 -186 0
8 84 201 0
-8 -84 -201 0
9 84 216 0
-9 -84 -216 0
1 85 97 0
-1 -85 -97 0
2 85 112 0
-2 -85 -112 0
3 85 127 0
-3 -85 -127 0
4 85 142 0
-4 -85 -142 0
5 85 157 0
-5 -85 -157 0
6 85 172 0
-6 -85 -172 0
7 85 187 0
-7 -85 -187 0
8 85 202 0
-8 -85 -202 0
9 85 217 0
-9 -85 -217 0
1 86 98 0
-1 -86 -98 0
2 86 113 0
-2 -86 -113 0
3 86 128 0
-3 -86 -128 0
4 86 143 0
-4 -86 -143 0
5 86 158 0
-5 -86 -158 0
6 86 173 0
-6 -86 -173 0
7 86 188 0
-7 -86 -188 0
8 86 203 0
-8 -86 -203 0
9 86 218 0
-9 -86 -218 0
1 87 99 0
-1 -87 -99 0
2 87 114 0
-2 -87 -114 0
3 87 129 0
-3 -87 -129 0
4 87 144 0
-4 -87 -144 0
5 87 159 0
-5 -87 -159 0
6 87 174 0
-6 -87 -174 0
7 87 189 0
-7 -87 -189 0
8 87 204 0
-8 -87 -204 0
9 87 219 0
-9 -87 -219 0
1 88 100 0
-1 -88 -100 0
2 88 115 0
-2 -88 -115 0
3 88 130 0
-3 -88 -130 0
4 88 145 0
-4 -88 -145 0
5 88 160 0
-5 -88 -160 0
6 88 175 0
-6 -88 -175 0
7 88 190 0
-7 -88 -190 0
8 88 205 0
-8 -88 -205 0
9 88 220 0
-9 -88 -220 0
1 89 101 0
-1 -89 -101 0
2 89 116 0
-2 -89 -116 0
3 89 131 0
-3 -89 -131 0
4 89 146 0
-4 -89 -146 0
5 89 161 0
-5 -89 -161 0
6 89 176 0
-6 -89 -176 0
7 89 191 0
-7 -89 -191 0
8 89 206 0
-8 -89 -206 0
1 90 102 0
-1 -90 -102 0
2 90 117 0
-2 -90 -117 0
3 90 132 0
-3 -90 -132 0
4 90 147 0
-4 -90 -147 0
5 90 162 0
-5 -90 -162 0
6 90 177 0
-6 -90 -177 0
7 90 192 0
-7 -90 -192 0
8 90 207 0
-8 -90 -207 0
1 91 103 0
-1 -91 -103 0
2 91 118 0
-2 -91 -118 0
3 91 133 0
-3 -91 -133 0
4 91 148 0
-4 -91 -148 0
5 91 163 0
-5 -91 -163 0
6 91 178 0
-6 -91 -178 0
7 91 193 0
-7 -91 -193 0
8 91 208 0
-8 -91 -208 0
1 92 104 0
-1 -92 -104 0
2 92 119 0
-2 -92 -119 0
3 92 134 0
-3 -92 -134 0
4 92 149 0
-4 -92 -149 0
5 92 164 0
-5 -92 -164 0
6 92 179 0
-6 -92 -179 0
7 92 194 0
-7 -92 -194 0
8 92 209 0
-8 -92 -209 0
1 93 105 0
-1 -93 -105 0
2 93 120 0
-2 -93 -120 0
3 93 135 0
-3 -93 -135 0
4 93 150 0
-4 -93 -150 0
5 93 165 0
-5 -93 -165 0
6 93 180 0
-6 -93 -180 0
7 93 195 0
-7 -93 -195 0
8 93 210 0
-8 -93 -210 0
1 94 106 0
-1 -94 -106 0
2 94 121 0
-2 -94 -121 0
3 94 136 0
-3 -94 -136 0
4 94 151 0
-4 -94 -151 0
5 94 166 0
-5 -94 -166 0
6 94 181 0
-6 -94 -181 0
7 94 196 0
-7 -94 -196 0
8 94 211 0
-8 -94 -211 0
1 95 107 0
-1 -95 -107 0
2 95 122 0
-2 -95 -122 0
3 95 137 0
-3 -95 -137 0
4 95 152 0
-4 -95 -152 0
5 95 167 0
-5 -95 -167 0
6 95 182 0
-6 -95 -182 0
7 95 197 0
-7 -95 -197 0
8 95 212 0
-8 -95 -212 0
1 96 108 0
-1 -96 -108 0
2 96 123 0
-2 -96 -123 0
3 96 138 0
-3 -96 -138 0
4 96 153 0
-4 -96 -153 0
5 96 168 0
-5 -96 -168 0
6 96 183 0
-6 -96 -183 0
7 96 198 0
-7 -96 -198 0
8 96 213 0
-8 -96 -213 0
1 97 109 0
-1 -97 -109 0
2 97 124 0
-2 -97 -124 0
3 97 139 0
-3 -97 -139 0
4 97 154 0
-4 -97 -154 0
5 97 169 0
-5 -97 -169 0
6 97 184 0
-6 -97 -184 0
7 97 199 0
-7 -97 -199 0
8 97 214 0
-8 -97 -214 0
1 98 110 0
-1 -98 -110 0
2 98 125 0
-2 -98 -125 0
3 98 140 0
-3 -98 -140 0
4 98 155 0
-4 -98 -155 0
5 98 170 0
-5 -98 -170 0
6 98 185 0
-6 -98 -185 0
7 98 200 0
-7 -98 -200 0
8 98 215 0
-8 -98 -215 0
1 99 111 0
-1 -99 -111 0
2 99 126 0
-2 -99 -126 0
3 99 141 0
-3 -99 -141 0
4 99 156 0
-4 -99 -156 0
5 99 171 0
-5 -99 -171 0
6 99 186 0
-6 -99 -186 0
7 99 201 0
-7 -99 -201 0
8 99 216 0
-8 -99 -216 0
1 100 112 0
-1 -100 -112 0
2 100 127 0
-2 -100 -127 0
3 100 142 0
-3 -100 -142 0
4 100 157 0
-4 -100 -157 0
5 100 172 0
-5 -100 -172 0
6 100 187 0
-6 -100 -187 0
7 100 202 0
-7 -100 -202 0
8 100 217 0
-8 -100 -217 0
1 101 113 0
-1 -101 -113 0
2 101 128 0
-2 -101 -128 0
3 101 143 0
-3 -101 -143 0
4 101 158 0
-4 -101 -158 0
5 101 173 0
-5 -101 -173 0
6 101 188 0
-6 -101 -188 0
7 101 203 0
-7 -101 -203 0
8 101 218 0
-8 -101 -218 0
1 102 114 0
-1 -102 -114 0
2 102 129 0
-2 -102 -129 0
3 102 144 0
-3 -102 -144 0
4 102 159 0
-4 -102 -159 0
5 102 174 0
-5 -102 -174 0
6 102 189 0
-6 -102 -189 0
7 102 204 0
-7 -102 -204 0
8 102 219 0
-8 -102 -219 0
1 103 115 0
-1 -103 -115 0
2 103 130 0
-2 -103 -130 0
3 103 145 0
-3 -103 -145 0
4 103 160 0
-4 -103 -160 0
5 103 175 0
-5 -103 -175 0
6 103 190 0
-6 -103 -190 0
7 103 205 0
-7 -103 -205 0
8 103 220 0
-8 -103 -220 0
1 104 116 0
-1 -104 -116 0
2 104 131 0
-2 -104 -131 0
3 104 146 0
-3 -104 -146 0
4 104 161 0
-4 -104 -161 0
5 104 176 0
-5 -104 -176 0
6 104 191 0
-6 -104 -191 0
7 104 206 0
-7 -104 -206 0
1 105 117 0
-1 -105 -117 0
2 105 132 0
-2 -105 -132 0
3 105 147 0
-3 -105 -147 0
4 105 162 0
-4 -105 -162 0
5 105 177 0
-5 -105 -177 0
6 105 192 0
-6 -105 -192 0
7 105 207 0
-7 -105 -207 0
1 106 118 0
-1 -106 -118 0
2 106 133 0
-2 -106 -133 0
3 106 148 0
-3 -106 -148 0
4 106 163 0
-4 -106 -163 0
5 106 178 0
-5 -106 -178 0
6 106 193 0
-6 -106 -193 0
7 106 208 0
-7 -106 -208 0
1 107 119 0
-1 -107 -119 0
2 107 134 0
-2 -107 -134 0
3 107 149 0
-3 -107 -149 0
4 107 164 0
-4 -107 -164 0
5 107 179 0
-5 -107 -179 0
6 107 194 0
-6 -107 -194 0
7 107 209 0
-7 -107 -209 0
1 108 120 0
-1 -108 -120 0
2 108 135 0
-2 -108 -135 0
3 108 150 0
-3 -108 -150 0
4 108 165 0
-4 -108 -165 0
5 108 180 0
-5 -108 -180 0
6 108 195 0
-6 -108 -195 0
7 108 210 0
-7 -108 -210 0
1 109 121 0
-1 -109 -121 0
2 109 136 0
-2 -109 -136 0
3 109 151 0
-3 -109 -151 0
4 109 166 0
-4 -109 -166 0
5 109 181 0
-5 -109 -181 0
6 109 196 0
-6 -109 -196 0
7 109 211 0
-7 -109 -211 0
1 110 122 0
-1 -110 -122 0
2 110 137 0
-2 -110 -137 0
3 110 152 0
-3 -110 -152 0
4 110 167 0
-4 -110 -167 0
5 110 182 0
-5 -110 -182 0
6 110 197 0
-6 -110 -197 0
7 110 212 0
-7 -110 -212 0
1 111 123 0
-1 -111 -123 0
2 111 138 0
-2 -111 -138 0
3 111 153 0
-3 -111 -153 0
4 111 168 0
-4 -111 -168 0
5 111 183 0
-5 -111 -183 0
6 111 198 0
-6 -111 -198 0
7 111 213 0
-7 -111 -213 0
1 112 124 0
-1 -112 -124 0
2 112 139 0
-2 -112 -139 0
3 112 154 0
-3 -112 -154 0
4 112 169 0
-4 -112 -169 0
5 112 184 0
-5 -112 -184 0
6 112 199 0
-6 -112 -199 0
7 112 214 0
-7 -112 -214 0
1 113 125 0
-1 -113 -125 0
2 113 140 0
-2 -113 -140 0
3 113 155 0
-3 -113 -155 0
4 113 170 0
-4 -113 -170 0
5 113 185 0
-5 -113 -185 0
6 113 200 0
-6 -113 -200 0
7 113 215 0
-7 -113 -215 0
1 114 126 0
-1 -114 -126 0
2 114 141 0
-2 -114 -141 0
3 114 156 0
-3 -114 -156 0
4 114 171 0
-4 -114 -171 0
5 114 186 0
-5 -114 -186 0
6 114 201 0
-6 -114 -201 0
7 114 216 0
-7 -114 -216 0
1 115 127 0
-1 -115 -127 0
2 115 142 0
-2 -115 -142 0
3 115 157 0
-3 -115 -157 0
4 115 172 0
-4 -115 -172 0
5 115 187 0
-5 -115 -187 0
6 115 202 0
-6 -115 -202 0
7 115 217 0
-7 -115 -217 0
1 116 128 0
-1 -116 -128 0
2 116 143 0
-2 -116 -143 0
3 116 158 0
-3 -116 -158 0
4 116 173 0
-4 -116 -173 0
5 116 188 0
-5 -116 -188 0
6 116 203 0
-6 -116 -203 0
7 116 218 0
-7 -116 -218 0
1 117 129 0
-1 -117 -129 0
2 117 144 0
-2 -117 -144 0
3 117 159 0
-3 -117 -159 0
4 117 174 0
-4 -117 -174 0
5 117 189 0
-5 -117 -189 0
6 117 204 0
-6 -117 -204 0
7 117 219 0
-7 -117 -219 0
1 118 130 0
-1 -118 -130 0
2 118 145 0
-2 -118 -145 0
3 118 160 0
-3 -118 -160 0
4 118 175 0
-4 -118 -175 0
5 118 190 0
-5 -118 -190 0
6 118 205 0
-6 -118 -205 0
7 118 220 0
-7 -118 -220 0
1 119 131 0
-1 -119 -131 0
2 119 146 0
-2 -119 -146 0
3 119 161 0
-3 -119 -161 0
4 119 176 0
-4 -119 -176 0
5 119 191 0
-5 -119 -191 0
6 119 206 0
-6 -119 -206 0
1 120 132 0
-1 -120 -132 0
2 120 147 0
-2 -120 -147 0
3 120 162 0
-3 -120 -162 0
4 120 177 0
-4 -120 -177 0
5 120 192 0
-5 -120 -192 0
6 120 207 0
-6 -120 -207 0
1 121 133 0
-1 -121 -133 0
2 121 148 0
-2 -121 -148 0
3 121 163 0
-3 -121 -163 0
4 121 178 0
-4 -121 -178 0
5 121 193 0
-5 -121 -193 0
6 121 208 0
-6 -121 -208 0
1 122 134 0
-1 -122 -134 0
2 122 149 0
-2 -122 -149 0
3 122 164 0
-3 -122 -164 0
4 122 179 0
-4 -122 -179 0
5 122 194 0
-5 -122 -194 0
6 122 209 0
-6 -122 -209 0
1 123 135 0
-1 -123 -135 0
2 123 150 0
-2 -123 -150 0
3 123 165 0
-3 -123 -165 0
4 123 180 0
-4 -123 -180 0
5 123 195 0
-5 -123 -195 0
6 123 210 0
-6 -123 -210 0
1 124 136 0
-1 -124 -136 0
2 124 151 0
-2 -124 -151 0
3 124 166 0
-3 -124 -166 0
4 124 181 0
-4 -124 -181 0
5 124 196 0
-5 -124 -196 0
6 124 211 0
-6 -124 -211 0
1 125 137 0
-1 -125 -137 0
2 125 152 0
-2 -125 -152 0
3 125 167 0
-3 -125 -167 0
4 125 182 0
-4 -125 -182 0
5 125 197 0
-5 -125 -197 0
6 125 212 0
-6 -125 -212 0
1 126 138 0
-1 -126 -138 0
2 126 153 0
-2 -126 -153 0
3 126 168 0
-3 -126 -168 0
4 126 183 0
-4 -126 -183 0
5 126 198 0
-5 -126 -198 0
6 126 213 0
-6 -126 -213 0
1 127 139 0
-1 -127 -139 0
2 127 154 0
-2 -127 -154 0
3 127 169 0
-3 -127 -169 0
4 127 184 0
-4 -127 -184 0
5 127 199 0
-5 -127 -199 0
6 127 214 0
-6 -127 -214 0
1 128 140 0
-1 -128 -140 0
2 128 155 0
-2 -128 -155 0
3 128 170 0
-3 -128 -170 0
4 128 185 0
-4 -128 -185 0
5 128 200 0
-5 -128 -200 0
6 128 215 0
-6 -128 -215 0
1 129 141 0
-1 -129 -141 0
2 129 156 0
-2 -129 -156 0
3 129 171 0
-3 -129 -171 0
4 129 186 0
-4 -129 -186 0
5 129 201 0
-5 -129 -201 0
6 129 216 0
-6 -129 -216 0
1 130 142 0
-1 -130 -142 0
2 130 157 0
-2 -130 -157 0
3 130 172 0
-3 -130 -172 0
4 130 187 0
-4 -130 -187 0
5 130 202 0
-5 -130 -202 0
6 130 217 0
-6 -130 -217 0
1 131 143 0
-1 -131 -143 0
2 131 158 0
-2 -131 -158 0
3 131 173 0
-3 -131 -173 0
4 131 188 0
-4 -131 -188 0
5 131 203 0
-5 -131 -203 0
6 131 218 0
-6 -131 -218 0
1 132 144 0
-1 -132 -144 0
2 132 159 0
-2 -132 -159 0
3 132 174 0
-3 -132 -174 0
4 132 189 0
-4 -132 -189 0
5 132 204 0
-5 -132 -204 0
6 132 219 0
-6 -132 -219 0
1 133 145 0
-1 -133 -145 0
2 133 160 0
-2 -133 -160 0
3 133 175 0
-3 -133 -175 0
4 133 190 0
-4 -133 -190 0
5 133 205 0
-5 -133 -205 0
6 133 220 0
-6 -133 -220 0
1 134 146 0
-1 -134 -146 0
2 134 161 0
-2 -134 -161 0
3 134 176 0
-3 -134 -176 0
4 134 191 0
-4 -134 -191 0
5 134 206 0
-5 -134 -206 0
1 135 147 0
-1 -135 -147 0
2 135 162 0
-2 -135 -162 0
3 135 177 0
-3 -135 -177 0
4 135 192 0
-4 -135 -192 0
5 135 207 0
-5 -135 -207 0
1 136 148 0
-1 -136 -148 0
2 136 163 0
-2 -136 -163 0
3 136 178 0
-3 -136 -178 0
4 136 193 0
-4 -136 -193 0
5 136 208 0
-5 -136 -208 0
1 137 149 0
-1 -137 -149 0
2 137 164 0
-2 -137 -164 0
3 137 179 0
-3 -137 -179 0
4 137 194 0
-4 -137 -194 0
5 137 209 0
-5 -137 -209 0
1 138 150 0
-1 -138 -150 0
2 138 165 0
-2 -138 -165 0
3 138 180 0
-3 -138 -180 0
4 138 195 0
-4 -138 -195 0
5 138 210 0
-5 -138 -210 0
1 139 151 0
-1 -139 -151 0
2 139 166 0
-2 -139 -166 0
3 139 181 0
-3 -139 -181 0
4 139 196 0
-4 -139 -196 0
5 139 211 0
-5 -139 -211 0
1 140 152 0
-1 -140 -152 0
2 140 167 0
-2 -140 -167 0
3 140 182 0
-3 -140 -182 0
4 140 197 0
-4 -140 -197 0
5 140 212 0
-5 -140 -212 0
1 141 153 0
-1 -141 -153 0
2 141 168 0
-2 -141 -168 0
3 141 183 0
-3 -141 -183 0
4 141 198 0
-4 -141 -198 0
5 141 213 0
-5 -141 -213 0
1 142 154 0
-1 -142 -154 0
2 142 169 0
-2 -142 -169 0
3 142 184 0
-3 -142 -184 0
4 142 199 0
-4 -142 -199 0
5 142 214 0
-5 -142 -214 0
1 143 155 0
-1 -143 -155 0
2 143 170 0
-2 -143 -170 0
3 143 185 0
-3 -143 -185 0
4 143 200 0
-4 -143 -200 0
5 143 215 0
-5 -143 -215 0
1 144 156 0
-1 -144 -156 0
2 144 171 0
-2 -144 -171 0
3 144 186 0
-3 -144 -186 0
4 144 201 0
-4 -144 -201 0
5 144 216 0
-5 -144 -216 0
1 145 157 0
-1 -145 -157 0
2 145 172 0
-2 -145 -172 0
3 145 187 0
-3 -145 -187 0
4 145 202 0
-4 -145 -202 0
5 145 217 0
-5 -145 -217 0
1 146 158 0
-1 -146 -158 0
2 146 173 0
-2 -146 -173 0
3 146 188 0
-3 -146 -188 0
4 146 203 0
-4 -146 -203 0
5 146 218 0
-5 -146 -218 0
1 147 159 0
-1 -147 -159 0
2 147 174 0
-2 -147 -174 0
3 147 189 0
-3 -147 -189 0
4 147 204 0
-4 -147 -204 0
5 147 219 0
-5 -147 -219 0
1 148 160 0
-1 -148 -160 0
2 148 175 0
-2 -148 -175 0
3 148 190 0
-3 -148 -190 0
4 148 205 0
-4 -148 -205 0
5 148 220 0
-5 -148 -220 0
1 149 161 0
-1 -149 -161 0
2 149 176 0
-2 -149 -176 0
3 149 191 0
-3 -149 -191 0
4 149 206 0
-4 -149 -206 0
1 150 162 0
-1 -150 -162 0
2 150 177 0
-2 -150 -177 0
3 150 192 0
-3 -150 -192 0
4 150 207 0
-4 -150 -207 0
1 151 163 0
-1 -151 -163 0
2 151 178 0
-2 -151 -178 0
3 151 193 0
-3 -151 -193 0
4 151 208 0
-4 -151 -208 0
1 152 164 0
-1 -152 -164 0
2 152 179 0
-2 -152 -179 0
3 152 194 0
-3 -152 -194 0
4 152 209 0
-4 -152 -209 0
1 153 165 0
-1 -153 -165 0
2 153 180 0
-2 -153 -180 0
3 153 195 0
-3 -153 -195 0
4 153 210 0
-4 -153 -210 0
1 154 166 0
-1 -154 -166 0
2 154 181 0
-2 -154 -181 0
3 154 196 0
-3 -154 -196 0
4 154 211 0
-4 -154 -211 0
1 155 167 0
-1 -155 -167 0
2 155 182 0
-2 -155 -182 0
3 155 197 0
-3 -155 -197 0
4 155 212 0
-4 -155 -212 0
1 156 168 0
-1 -156 -168 0
2 156 183 0
-2 -156 -183 0
3 156 198 0
-3 -156 -198 0
4 156 213 0
-4 -156 -213 0
1 157 169 0
-1 -157 -169 0
2 157 184 0
-2 -157 -184 0
3 157 199 0
-3 -157 -199 0
4 157 214 0
-4 -157 -214 0
1 158 170 0
-1 -158 -170 0
2 158 185 0
-2 -158 -185 0
3 158 200 0
-3 -158 -200 0
4 158 215 0
-4 -158 -215 0
1 159 171 0
-1 -159 -171 0
2 159 186 0
-2 -159 -186 0
3 159 201 0
-3 -159 -201 0
4 159 216 0
-4 -159 -216 0
1 160 172 0
-1 -160 -172 0
2 160 187 0
-2 -160 -187 0
3 160 202 0
-3 -160 -202 0
4 160 217 0
-4 -160 -217 0
1 161 173 0
-1 -161 -173 0
2 161 188 0
-2 -161 -188 0
3 161 203 0
-3 -161 -203 0
4 161 218 0
-4 -161 -218 0
1 162 174 0
-1 -162 -174 0
2 162 189 0
-2 -162 -189 0
3 162 204 0
-3 -162 -204 0
4 162 219 0
-4 -162 -219 0
1 163 175 0
-1 -163 -175 0
2 163 190 0
-2 -163 -190 0
3 163 205 0
-3 -163 -205 0
4 163 220 0
-4 -163 -220 0
1 164 176 0
-1 -164 -176 0
2 164 191 0
-2 -164 -191 0
3 164 206 0
-3 -164 -206 0
1 165 177 0
-1 -165 -177 0
2 165 192 0
-2 -165 -192 0
3 165 207 0
-3 -165 -207 0
1 166 178 0
-1 -166 -178 0
2 166 193 0
-2 -166 -193 0
3 166 208 0
-3 -166 -208 0
1 167 179 0
-1 -167 -179 0
2 167 194 0
-2 -167 -194 0
3 167 209 0
-3 -167 -209 0
1 168 180 0
-1 -168 -180 0
2 168 195 0
-2 -168 -195 0
3 168 210 0
-3 -168 -210 0
1 169 181 0
-1 -169 -181 0
2 169 196 0
-2 -169 -196 0
3 169 211 0
-3 -169 -211 0
1 170 182 0
-1 -170 -182 0
2 170 197 0
-2 -170 -197 0
3 170 212 0
-3 -170 -212 0
1 171 183 0
-1 -171 -183 0
2 171 198 0
-2 -171 -198 0
3 171 213 0
-3 -171 -213 0
1 172 184 0
-1 -172 -184 0
2 172 199 0
-2 -172 -199 0
3 172 214 0
-3 -172 -214 0
1 173 185 0
-1 -173 -185 0
2 173 200 0
-2 -173 -200 0
3 173 215 0
-3 -173 -215 0
1 174 186 0
-1 -174 -186 0
2 174 201 0
-2 -174 -201 0
3 174 216 0
-3 -174 -216 0
1 175 187 0
-1 -175 -187 0
2 175 202 0
-2 -175 -202 0
3 175 217 0
-3 -175 -217 0
1 176 188 0
-1 -176 -188 0
2 176 203 0
-2 -176 -203 0
3 176 218 0
-3 -176 -218 0
1 177 189 0
-1 -177 -189 0
2 177 204 0
-2 -177 -204 0
3 177 219 0
-3 -177 -219 0
1 178 190 0
-1 -178 -190 0
2 178 205 0
-2 -178 -205 0
3 178 220 0
-3 -178 -220 0
1 179 191 0
-1 -179 -191 0
2 179 206 0
-2 -179 -206 0
1 180 192 0
-1 -180 -192 0
2 180 207 0
-2 -180 -207 0
1 181 193 0
-1 -181 -193 0
2 181 208 0
-2 -181 -208 0
1 182 194 0
-1 -182 -194 0
2 182 209 0
-2 -182 -209 0
1 183 195 0
-1 -183 -195 0
2 183 210 0
-2 -183 -210 0
1 184 196 0
-1 -184 -196 0
2 184 211 0
-2 -184 -211 0
1 185 197 0
-1 -185 -197 0
2 185 212 0
-2 -185 -212 0
1 186 198 0
-1 -186 -198 0
2 186 213 0
-2 -186 -213 0
1 187 199 0
-1 -187 -199 0
2 187 214 0
-2 -187 -214 0
1 188 200 0
-1 -188 -200 0
2 188 215 0
-2 -188 -215 0
1 189 201 0
-1 -189 -201 0
2 189 216 0
-2 -189 -216 0
1 190 202 0
-1 -190 -202 0
2 190 217 0
-2 -190 -217 0
1 191 203 0
-1 -191 -203 0
2 191 218 0
-2 -191 -218 0
1 192 204 0
-1 -192 -204 0
2 192 219 0
-2 -192 -219 0
1 193 205 0
-1 -193 -205 0
2 193 220 0
-2 -193 -220 0
1 194 206 0
-1 -194 -206 0
1 195 207 0
-1 -195 -207 0
1 196 208 0
-1 -196 -208 0
1 197 209 0
-1 -197 -209 0
1 198 210 0
-1 -198 -210 0
1 199 211 0
-1 -199 -211 0
1 200 212 0
-1 -200 -212 0
1 201 213 0
-1 -201 -213 0
1 202 214 0
-1 -202 -214 0
1 203 215 0
-1 -203 -215 0
1 204 216 0
-1 -204 -216 0
1 205 217 0
-1 -205 -217 0
1 206 218 0
-1 -206 -218 0
1 207 219 0
-1 -207 -219 0
1 208 220 0
-1 -208 -220 0
