certificates/rado_a15_c3_N220.drat
1 -218 -220 0
-1 -219 -220 0
1 -220 0
d 1 -218 -220 0
-220 0
13 0
-1 0
-205 0
208 0
217 0
193 0
-16 0
-25 0
28 0
4 0
37 0
-61 0
-196 0
-70 0
-85 0
-94 0
-136 0
-151 0
-160 0
73 0
49 0
184 0
82 0
58 0
97 0
106 0
3 0
7 0
148 0
124 0
163 0
139 0
172 0
-130 0
0
